Route #1: 132 109 87 78 83 100 40 95
Route #2: 118 72 3 38 50 35 54 26 74
Route #3: 124 33 86 103 10 110 123 56
Route #4: 32 24 62 12 85 29 133 82
Route #5: 115 92 119 88 37 130 80
Route #6: 19 106 57 71 61 1 31 125
Route #7: 128 76 17 69 49 127 114 11
Route #8: 122 64 117 79 48 101 131 52
Route #9: 129 116 89 36 111 104 120 112
Route #10: 25 113 108 90 43 99 21 46
Route #11: 58 105 41 34 2 13 97 5 77 6 45
Route #12: 53 121 96 39 9 14 91 60
Route #13: 51 16 47 73 18 59 68 7 66 93 94 102
Route #14: 63 81 15 27 22 55 126 20 67 4 70 44 107 84 8 30 23 98 75 28 65 42
Cost 14010
